p cnf 877 2135
1 0
2 0
3 0
4 0
5 0
6 0
7 0
8 0
9 0
10 0
-11 0
-12 0
-13 0
-14 0
-15 0
-16 0
-17 0
-18 0
-19 0
-20 21 0
-22 21 0
-23 21 0
-24 21 0
-25 21 0
-26 21 0
20 22 23 24 25 26 -21 0
27 -21 0
-27 21 0
-22 28 0
-23 28 0
-24 28 0
-25 28 0
-26 28 0
22 23 24 25 26 -28 0
29 -28 0
-29 28 0
-23 30 0
-24 30 0
-25 30 0
-26 30 0
23 24 25 26 -30 0
31 -30 0
-31 30 0
-24 32 0
-25 32 0
-26 32 0
24 25 26 -32 0
33 -32 0
-33 32 0
-25 34 0
-26 34 0
25 26 -34 0
35 -34 0
-35 34 0
36 -34 0
-36 34 0
-37 38 0
-39 38 0
-40 38 0
-41 38 0
-42 38 0
-43 38 0
37 39 40 41 42 43 -38 0
44 -38 0
-44 38 0
-39 45 0
-40 45 0
-41 45 0
-42 45 0
-43 45 0
39 40 41 42 43 -45 0
46 -45 0
-46 45 0
-40 47 0
-41 47 0
-42 47 0
-43 47 0
40 41 42 43 -47 0
48 -47 0
-48 47 0
49 -47 0
-49 47 0
-42 50 0
-43 50 0
-40 50 0
-41 50 0
42 43 40 41 -50 0
51 -50 0
-51 50 0
52 -47 0
-52 47 0
-53 54 0
-55 54 0
-56 54 0
-57 54 0
53 55 56 57 -54 0
58 -54 0
-58 54 0
59 -54 0
-59 54 0
60 -54 0
-60 54 0
61 -54 0
-61 54 0
-62 63 0
-64 63 0
-65 63 0
-66 63 0
-67 63 0
-68 63 0
69 0
70 -63 0
-70 63 0
-64 71 0
-65 71 0
-66 71 0
-67 71 0
-68 71 0
64 65 66 67 68 -71 0
72 -71 0
-72 71 0
-65 73 0
-66 73 0
-67 73 0
-68 73 0
65 66 67 68 -73 0
74 -73 0
-74 73 0
75 -73 0
-75 73 0
76 -73 0
-76 73 0
77 -73 0
-77 73 0
-78 79 0
-80 79 0
-81 79 0
-82 79 0
-83 79 0
78 80 81 82 83 -79 0
84 -79 0
-84 79 0
-80 85 0
-81 85 0
-82 85 0
-83 85 0
80 81 82 83 -85 0
86 -85 0
-86 85 0
-81 87 0
-82 87 0
-83 87 0
81 82 83 -87 0
88 -87 0
-88 87 0
-82 89 0
-83 89 0
82 83 -89 0
90 -89 0
-90 89 0
91 -83 0
83 -91 0
-92 93 0
-94 93 0
-95 93 0
-96 93 0
-97 93 0
-98 93 0
-99 93 0
100 0
101 -93 0
-101 93 0
-94 102 0
-95 102 0
-96 102 0
-97 102 0
-98 102 0
-99 102 0
103 0
104 -102 0
-104 102 0
-95 105 0
-96 105 0
-97 105 0
-98 105 0
-99 105 0
95 96 97 98 99 -105 0
106 -105 0
-106 105 0
-96 107 0
-97 107 0
-98 107 0
-99 107 0
96 97 98 99 -107 0
108 -107 0
-108 107 0
109 -107 0
-109 107 0
110 -107 0
-110 107 0
111 -107 0
-111 107 0
-112 113 0
-114 113 0
-115 113 0
-116 113 0
-117 113 0
-118 113 0
-119 113 0
120 0
121 -113 0
-121 113 0
-114 122 0
-115 122 0
-116 122 0
-117 122 0
-118 122 0
-119 122 0
123 0
124 -122 0
-124 122 0
-115 125 0
-116 125 0
-117 125 0
-118 125 0
-119 125 0
115 116 117 118 119 -125 0
126 -125 0
-126 125 0
-116 127 0
-117 127 0
-118 127 0
-119 127 0
116 117 118 119 -127 0
128 -127 0
-128 127 0
-117 129 0
-118 129 0
-119 129 0
117 118 119 -129 0
130 -129 0
-130 129 0
131 -129 0
-131 129 0
132 -129 0
-132 129 0
-53 133 0
-55 133 0
-56 133 0
-57 133 0
-134 133 0
-135 133 0
136 0
137 -133 0
-137 133 0
-53 138 0
-55 138 0
-56 138 0
-57 138 0
-135 138 0
53 55 56 57 135 -138 0
139 -138 0
-139 138 0
-140 141 0
-142 141 0
-143 141 0
-144 141 0
-145 141 0
-146 141 0
-147 141 0
148 0
149 -141 0
-149 141 0
-142 150 0
-143 150 0
-144 150 0
-145 150 0
-146 150 0
-147 150 0
151 0
152 -150 0
-152 150 0
-143 153 0
-144 153 0
-145 153 0
-146 153 0
-147 153 0
143 144 145 146 147 -153 0
154 -153 0
-154 153 0
-144 155 0
-145 155 0
-146 155 0
-147 155 0
144 145 146 147 -155 0
156 -155 0
-156 155 0
-145 157 0
-146 157 0
-147 157 0
145 146 147 -157 0
158 -157 0
-158 157 0
159 -157 0
-159 157 0
160 -157 0
-160 157 0
-24 161 0
-25 161 0
-26 161 0
-162 161 0
-163 161 0
24 25 26 162 163 -161 0
164 -161 0
-164 161 0
-24 165 0
-25 165 0
-26 165 0
-163 165 0
24 25 26 163 -165 0
166 -165 0
-166 165 0
-167 168 0
-169 168 0
-170 168 0
167 169 170 -168 0
171 -168 0
-171 168 0
-169 172 0
-170 172 0
169 170 -172 0
173 -172 0
-173 172 0
174 -170 0
170 -174 0
-175 176 0
-177 176 0
-178 176 0
-179 176 0
-180 176 0
-181 176 0
-182 176 0
183 0
184 -176 0
-184 176 0
-177 185 0
-178 185 0
-179 185 0
-180 185 0
-181 185 0
-182 185 0
186 0
187 -185 0
-187 185 0
-178 188 0
-179 188 0
-180 188 0
-181 188 0
-182 188 0
178 179 180 181 182 -188 0
189 -188 0
-189 188 0
-179 190 0
-180 190 0
-181 190 0
-182 190 0
179 180 181 182 -190 0
191 -190 0
-191 190 0
192 -190 0
-192 190 0
193 -190 0
-193 190 0
194 -190 0
-194 190 0
-195 196 0
-197 196 0
-198 196 0
-199 196 0
-200 196 0
195 197 198 199 200 -196 0
201 -196 0
-201 196 0
-197 202 0
-198 202 0
-199 202 0
-200 202 0
197 198 199 200 -202 0
203 -202 0
-203 202 0
-198 204 0
-199 204 0
-200 204 0
198 199 200 -204 0
205 -204 0
-205 204 0
-199 206 0
-200 206 0
199 200 -206 0
207 -206 0
-207 206 0
208 -200 0
200 -208 0
-209 210 0
-211 210 0
-212 210 0
-213 210 0
-214 210 0
209 211 212 213 214 -210 0
215 -210 0
-215 210 0
-211 216 0
-212 216 0
-213 216 0
-214 216 0
211 212 213 214 -216 0
217 -216 0
-217 216 0
-212 218 0
-213 218 0
-214 218 0
212 213 214 -218 0
219 -218 0
-219 218 0
-213 220 0
-214 220 0
213 214 -220 0
221 -220 0
-221 220 0
222 -220 0
-222 220 0
-167 223 0
-169 223 0
-170 223 0
-224 223 0
167 169 170 224 -223 0
225 -223 0
-225 223 0
-179 226 0
-180 226 0
-181 226 0
-182 226 0
-227 226 0
-228 226 0
-229 226 0
230 0
231 -226 0
-231 226 0
-179 232 0
-180 232 0
-181 232 0
-182 232 0
-228 232 0
-229 232 0
233 0
234 -232 0
-234 232 0
-179 235 0
-180 235 0
-181 235 0
-182 235 0
-229 235 0
179 180 181 182 229 -235 0
236 -235 0
-236 235 0
-117 237 0
-118 237 0
-119 237 0
-238 237 0
-239 237 0
117 118 119 238 239 -237 0
240 -237 0
-240 237 0
-117 241 0
-118 241 0
-119 241 0
-239 241 0
117 118 119 239 -241 0
242 -241 0
-242 241 0
-195 243 0
-197 243 0
-198 243 0
-199 243 0
-200 243 0
-244 243 0
-245 243 0
-246 243 0
-247 243 0
-248 243 0
249 0
250 -243 0
-250 243 0
-195 251 0
-197 251 0
-198 251 0
-199 251 0
-200 251 0
-245 251 0
-246 251 0
-247 251 0
-248 251 0
252 0
253 -251 0
-253 251 0
-195 254 0
-197 254 0
-198 254 0
-199 254 0
-200 254 0
-246 254 0
-247 254 0
-248 254 0
255 0
256 -254 0
-256 254 0
-195 257 0
-197 257 0
-198 257 0
-199 257 0
-200 257 0
-247 257 0
-248 257 0
258 0
259 -257 0
-259 257 0
-195 260 0
-197 260 0
-198 260 0
-199 260 0
-200 260 0
-248 260 0
261 0
262 -260 0
-262 260 0
-169 263 0
-170 263 0
-264 263 0
-265 263 0
-266 263 0
169 170 264 265 266 -263 0
267 -263 0
-267 263 0
-169 268 0
-170 268 0
-265 268 0
-266 268 0
169 170 265 266 -268 0
269 -268 0
-269 268 0
-169 270 0
-170 270 0
-266 270 0
169 170 266 -270 0
271 -270 0
-271 270 0
272 273 0
274 273 0
-272 -274 -273 0
-20 273 -275 0
20 -273 -275 0
275 -273 -20 0
20 273 275 0
-275 0
276 277 0
278 277 0
-276 -278 -277 0
-22 277 -279 0
22 -277 -279 0
279 -277 -22 0
22 277 279 0
-279 0
280 281 0
282 281 0
-280 -282 -281 0
-23 281 -283 0
23 -281 -283 0
283 -281 -23 0
23 281 283 0
-283 0
284 285 0
286 285 0
-284 -286 -285 0
-24 285 -287 0
24 -285 -287 0
287 -285 -24 0
24 285 287 0
-287 0
288 289 0
290 289 0
-288 -290 -289 0
-25 289 -291 0
25 -289 -291 0
291 -289 -25 0
25 289 291 0
-291 0
292 293 0
294 293 0
-292 -294 -293 0
-26 293 -295 0
26 -293 -295 0
295 -293 -26 0
26 293 295 0
-295 0
296 297 0
298 297 0
-296 -298 -297 0
-37 297 -299 0
37 -297 -299 0
299 -297 -37 0
37 297 299 0
-299 0
300 301 0
302 301 0
-300 -302 -301 0
-39 301 -303 0
39 -301 -303 0
303 -301 -39 0
39 301 303 0
-303 0
304 305 0
306 305 0
-304 -306 -305 0
-40 305 -307 0
40 -305 -307 0
307 -305 -40 0
40 305 307 0
-307 0
308 309 0
310 309 0
-308 -310 -309 0
-41 309 -311 0
41 -309 -311 0
311 -309 -41 0
41 309 311 0
-311 0
312 313 0
314 313 0
-312 -314 -313 0
-42 313 -315 0
42 -313 -315 0
315 -313 -42 0
42 313 315 0
-315 0
316 317 0
318 317 0
-316 -318 -317 0
-43 317 -319 0
43 -317 -319 0
319 -317 -43 0
43 317 319 0
-319 0
320 321 0
322 321 0
-320 -322 -321 0
-53 321 -323 0
53 -321 -323 0
323 -321 -53 0
53 321 323 0
-323 0
324 325 0
326 325 0
-324 -326 -325 0
-55 325 -327 0
55 -325 -327 0
327 -325 -55 0
55 325 327 0
-327 0
328 329 0
330 329 0
-328 -330 -329 0
-56 329 -331 0
56 -329 -331 0
331 -329 -56 0
56 329 331 0
-331 0
332 333 0
334 333 0
-332 -334 -333 0
-57 333 -335 0
57 -333 -335 0
335 -333 -57 0
57 333 335 0
-335 0
336 337 0
338 337 0
-336 -338 -337 0
-62 337 -339 0
62 -337 -339 0
339 -337 -62 0
62 337 339 0
-339 0
340 341 0
342 341 0
-340 -342 -341 0
-64 341 -343 0
64 -341 -343 0
343 -341 -64 0
64 341 343 0
-343 0
344 345 0
346 345 0
-344 -346 -345 0
-65 345 -347 0
65 -345 -347 0
347 -345 -65 0
65 345 347 0
-347 0
348 349 0
350 349 0
-348 -350 -349 0
-66 349 -351 0
66 -349 -351 0
351 -349 -66 0
66 349 351 0
-351 0
352 353 0
354 353 0
-352 -354 -353 0
-67 353 -355 0
67 -353 -355 0
355 -353 -67 0
67 353 355 0
-355 0
356 357 0
358 357 0
-356 -358 -357 0
-68 357 -359 0
68 -357 -359 0
359 -357 -68 0
68 357 359 0
-359 0
360 361 0
362 361 0
-360 -362 -361 0
-78 361 -363 0
78 -361 -363 0
363 -361 -78 0
78 361 363 0
-363 0
364 365 0
366 365 0
-364 -366 -365 0
-80 365 -367 0
80 -365 -367 0
367 -365 -80 0
80 365 367 0
-367 0
368 369 0
370 369 0
-368 -370 -369 0
-81 369 -371 0
81 -369 -371 0
371 -369 -81 0
81 369 371 0
-371 0
372 373 0
374 373 0
-372 -374 -373 0
-82 373 -375 0
82 -373 -375 0
375 -373 -82 0
82 373 375 0
-375 0
376 377 0
378 377 0
-376 -378 -377 0
-83 377 -379 0
83 -377 -379 0
379 -377 -83 0
83 377 379 0
-379 0
380 381 0
382 381 0
-380 -382 -381 0
-92 381 -383 0
92 -381 -383 0
383 -381 -92 0
92 381 383 0
-383 0
384 385 0
386 385 0
-384 -386 -385 0
-94 385 -387 0
94 -385 -387 0
387 -385 -94 0
94 385 387 0
-387 0
388 389 0
390 389 0
-388 -390 -389 0
-95 389 -391 0
95 -389 -391 0
391 -389 -95 0
95 389 391 0
-391 0
392 393 0
394 393 0
-392 -394 -393 0
-96 393 -395 0
96 -393 -395 0
395 -393 -96 0
96 393 395 0
-395 0
396 397 0
398 397 0
-396 -398 -397 0
-97 397 -399 0
97 -397 -399 0
399 -397 -97 0
97 397 399 0
-399 0
400 401 0
402 401 0
-400 -402 -401 0
-98 401 -403 0
98 -401 -403 0
403 -401 -98 0
98 401 403 0
-403 0
404 405 0
406 405 0
-404 -406 -405 0
-99 405 -407 0
99 -405 -407 0
407 -405 -99 0
99 405 407 0
-407 0
408 409 0
410 409 0
-408 -410 -409 0
-112 409 -411 0
112 -409 -411 0
411 -409 -112 0
112 409 411 0
-411 0
412 413 0
414 413 0
-412 -414 -413 0
-114 413 -415 0
114 -413 -415 0
415 -413 -114 0
114 413 415 0
-415 0
416 417 0
418 417 0
-416 -418 -417 0
-115 417 -419 0
115 -417 -419 0
419 -417 -115 0
115 417 419 0
-419 0
420 421 0
422 421 0
-420 -422 -421 0
-116 421 -423 0
116 -421 -423 0
423 -421 -116 0
116 421 423 0
-423 0
424 425 0
426 425 0
-424 -426 -425 0
-117 425 -427 0
117 -425 -427 0
427 -425 -117 0
117 425 427 0
-427 0
428 429 0
430 429 0
-428 -430 -429 0
-118 429 -431 0
118 -429 -431 0
431 -429 -118 0
118 429 431 0
-431 0
432 433 0
434 433 0
-432 -434 -433 0
-119 433 -435 0
119 -433 -435 0
435 -433 -119 0
119 433 435 0
-435 0
436 437 0
438 437 0
-436 -438 -437 0
-134 437 -439 0
134 -437 -439 0
439 -437 -134 0
134 437 439 0
-439 0
440 441 0
442 441 0
-440 -442 -441 0
-135 441 -443 0
135 -441 -443 0
443 -441 -135 0
135 441 443 0
-443 0
444 445 0
446 445 0
-444 -446 -445 0
-140 445 -447 0
140 -445 -447 0
447 -445 -140 0
140 445 447 0
-447 0
448 449 0
450 449 0
-448 -450 -449 0
-142 449 -451 0
142 -449 -451 0
451 -449 -142 0
142 449 451 0
-451 0
452 453 0
454 453 0
-452 -454 -453 0
-143 453 -455 0
143 -453 -455 0
455 -453 -143 0
143 453 455 0
-455 0
456 457 0
458 457 0
-456 -458 -457 0
-144 457 -459 0
144 -457 -459 0
459 -457 -144 0
144 457 459 0
-459 0
460 461 0
462 461 0
-460 -462 -461 0
-145 461 -463 0
145 -461 -463 0
463 -461 -145 0
145 461 463 0
-463 0
464 465 0
466 465 0
-464 -466 -465 0
-146 465 -467 0
146 -465 -467 0
467 -465 -146 0
146 465 467 0
-467 0
468 469 0
470 469 0
-468 -470 -469 0
-147 469 -471 0
147 -469 -471 0
471 -469 -147 0
147 469 471 0
-471 0
472 473 0
474 473 0
-472 -474 -473 0
-162 473 -475 0
162 -473 -475 0
475 -473 -162 0
162 473 475 0
-475 0
476 477 0
478 477 0
-476 -478 -477 0
-163 477 -479 0
163 -477 -479 0
479 -477 -163 0
163 477 479 0
-479 0
480 481 0
482 481 0
-480 -482 -481 0
-167 481 -483 0
167 -481 -483 0
483 -481 -167 0
167 481 483 0
-483 0
484 485 0
486 485 0
-484 -486 -485 0
-169 485 -487 0
169 -485 -487 0
487 -485 -169 0
169 485 487 0
-487 0
488 489 0
490 489 0
-488 -490 -489 0
-170 489 -491 0
170 -489 -491 0
491 -489 -170 0
170 489 491 0
-491 0
492 493 0
494 493 0
-492 -494 -493 0
-175 493 -495 0
175 -493 -495 0
495 -493 -175 0
175 493 495 0
-495 0
496 497 0
498 497 0
-496 -498 -497 0
-177 497 -499 0
177 -497 -499 0
499 -497 -177 0
177 497 499 0
-499 0
500 501 0
502 501 0
-500 -502 -501 0
-178 501 -503 0
178 -501 -503 0
503 -501 -178 0
178 501 503 0
-503 0
504 505 0
506 505 0
-504 -506 -505 0
-179 505 -507 0
179 -505 -507 0
507 -505 -179 0
179 505 507 0
-507 0
508 509 0
510 509 0
-508 -510 -509 0
-180 509 -511 0
180 -509 -511 0
511 -509 -180 0
180 509 511 0
-511 0
512 513 0
514 513 0
-512 -514 -513 0
-181 513 -515 0
181 -513 -515 0
515 -513 -181 0
181 513 515 0
-515 0
516 517 0
518 517 0
-516 -518 -517 0
-182 517 -519 0
182 -517 -519 0
519 -517 -182 0
182 517 519 0
-519 0
520 521 0
522 521 0
-520 -522 -521 0
-195 521 -523 0
195 -521 -523 0
523 -521 -195 0
195 521 523 0
-523 0
524 525 0
526 525 0
-524 -526 -525 0
-197 525 -527 0
197 -525 -527 0
527 -525 -197 0
197 525 527 0
-527 0
528 529 0
530 529 0
-528 -530 -529 0
-198 529 -531 0
198 -529 -531 0
531 -529 -198 0
198 529 531 0
-531 0
532 533 0
534 533 0
-532 -534 -533 0
-199 533 -535 0
199 -533 -535 0
535 -533 -199 0
199 533 535 0
-535 0
536 537 0
538 537 0
-536 -538 -537 0
-200 537 -539 0
200 -537 -539 0
539 -537 -200 0
200 537 539 0
-539 0
540 541 0
542 541 0
-540 -542 -541 0
-209 541 -543 0
209 -541 -543 0
543 -541 -209 0
209 541 543 0
-543 0
544 545 0
546 545 0
-544 -546 -545 0
-211 545 -547 0
211 -545 -547 0
547 -545 -211 0
211 545 547 0
-547 0
548 549 0
550 549 0
-548 -550 -549 0
-212 549 -551 0
212 -549 -551 0
551 -549 -212 0
212 549 551 0
-551 0
552 553 0
554 553 0
-552 -554 -553 0
-213 553 -555 0
213 -553 -555 0
555 -553 -213 0
213 553 555 0
-555 0
556 557 0
558 557 0
-556 -558 -557 0
-214 557 -559 0
214 -557 -559 0
559 -557 -214 0
214 557 559 0
-559 0
560 561 0
562 561 0
-560 -562 -561 0
-224 561 -563 0
224 -561 -563 0
563 -561 -224 0
224 561 563 0
-563 0
564 565 0
566 565 0
-564 -566 -565 0
-227 565 -567 0
227 -565 -567 0
567 -565 -227 0
227 565 567 0
-567 0
568 569 0
570 569 0
-568 -570 -569 0
-228 569 -571 0
228 -569 -571 0
571 -569 -228 0
228 569 571 0
-571 0
572 573 0
574 573 0
-572 -574 -573 0
-229 573 -575 0
229 -573 -575 0
575 -573 -229 0
229 573 575 0
-575 0
576 577 0
578 577 0
-576 -578 -577 0
-238 577 -579 0
238 -577 -579 0
579 -577 -238 0
238 577 579 0
-579 0
580 581 0
582 581 0
-580 -582 -581 0
-239 581 -583 0
239 -581 -583 0
583 -581 -239 0
239 581 583 0
-583 0
584 585 0
586 585 0
-584 -586 -585 0
-244 585 -587 0
244 -585 -587 0
587 -585 -244 0
244 585 587 0
-587 0
588 589 0
590 589 0
-588 -590 -589 0
-245 589 -591 0
245 -589 -591 0
591 -589 -245 0
245 589 591 0
-591 0
592 593 0
594 593 0
-592 -594 -593 0
-246 593 -595 0
246 -593 -595 0
595 -593 -246 0
246 593 595 0
-595 0
596 597 0
598 597 0
-596 -598 -597 0
-247 597 -599 0
247 -597 -599 0
599 -597 -247 0
247 597 599 0
-599 0
600 601 0
602 601 0
-600 -602 -601 0
-248 601 -603 0
248 -601 -603 0
603 -601 -248 0
248 601 603 0
-603 0
604 605 0
606 605 0
-604 -606 -605 0
-264 605 -607 0
264 -605 -607 0
607 -605 -264 0
264 605 607 0
-607 0
608 609 0
610 609 0
-608 -610 -609 0
-265 609 -611 0
265 -609 -611 0
611 -609 -265 0
265 609 611 0
-611 0
612 613 0
614 613 0
-612 -614 -613 0
-266 613 -615 0
266 -613 -615 0
615 -613 -266 0
266 613 615 0
-615 0
-272 0
-276 0
-280 0
284 0
-288 0
-292 0
-296 0
300 0
-304 0
308 0
312 0
316 0
320 0
324 0
328 0
332 0
-336 0
-340 0
344 0
348 0
-352 0
356 0
360 0
364 0
368 0
-372 0
376 0
-380 0
384 0
-388 0
392 0
-396 0
400 0
404 0
-408 0
412 0
-416 0
-420 0
-424 0
-428 0
432 0
-436 0
440 0
-444 0
448 0
452 0
-456 0
460 0
-464 0
-468 0
-472 0
476 0
-480 0
484 0
-488 0
-492 0
-496 0
-500 0
504 0
508 0
-512 0
516 0
520 0
-524 0
528 0
-532 0
536 0
-540 0
-544 0
548 0
552 0
-556 0
-560 0
-564 0
-568 0
-572 0
-576 0
580 0
-584 0
588 0
592 0
596 0
-600 0
-604 0
-608 0
-612 0
-616 617 0
-618 617 0
-619 617 0
-620 617 0
-621 617 0
-622 617 0
616 618 619 620 621 622 -617 0
274 -617 0
-274 617 0
-618 623 0
-619 623 0
-620 623 0
-621 623 0
-622 623 0
618 619 620 621 622 -623 0
278 -623 0
-278 623 0
-619 624 0
-620 624 0
-621 624 0
-622 624 0
619 620 621 622 -624 0
282 -624 0
-282 624 0
-620 625 0
-621 625 0
-622 625 0
620 621 622 -625 0
286 -625 0
-286 625 0
-621 626 0
-622 626 0
621 622 -626 0
290 -626 0
-290 626 0
294 -626 0
-294 626 0
-627 628 0
-629 628 0
-630 628 0
-631 628 0
-632 628 0
-633 628 0
627 629 630 631 632 633 -628 0
298 -628 0
-298 628 0
-629 634 0
-630 634 0
-631 634 0
-632 634 0
-633 634 0
629 630 631 632 633 -634 0
302 -634 0
-302 634 0
-630 635 0
-631 635 0
-632 635 0
-633 635 0
630 631 632 633 -635 0
306 -635 0
-306 635 0
310 -635 0
-310 635 0
-632 636 0
-633 636 0
-630 636 0
-631 636 0
632 633 630 631 -636 0
314 -636 0
-314 636 0
318 -635 0
-318 635 0
-637 638 0
-639 638 0
-640 638 0
-641 638 0
637 639 640 641 -638 0
322 -638 0
-322 638 0
326 -638 0
-326 638 0
330 -638 0
-330 638 0
334 -638 0
-334 638 0
-642 643 0
-644 643 0
-645 643 0
-646 643 0
-647 643 0
-648 643 0
649 0
338 -643 0
-338 643 0
-644 650 0
-645 650 0
-646 650 0
-647 650 0
-648 650 0
644 645 646 647 648 -650 0
342 -650 0
-342 650 0
-645 651 0
-646 651 0
-647 651 0
-648 651 0
645 646 647 648 -651 0
346 -651 0
-346 651 0
350 -651 0
-350 651 0
354 -651 0
-354 651 0
358 -651 0
-358 651 0
-652 653 0
-654 653 0
-655 653 0
-656 653 0
-657 653 0
652 654 655 656 657 -653 0
362 -653 0
-362 653 0
-654 658 0
-655 658 0
-656 658 0
-657 658 0
654 655 656 657 -658 0
366 -658 0
-366 658 0
-655 659 0
-656 659 0
-657 659 0
655 656 657 -659 0
370 -659 0
-370 659 0
-656 660 0
-657 660 0
656 657 -660 0
374 -660 0
-374 660 0
378 -657 0
657 -378 0
-661 662 0
-663 662 0
-664 662 0
-665 662 0
-666 662 0
-667 662 0
-668 662 0
669 0
382 -662 0
-382 662 0
-663 670 0
-664 670 0
-665 670 0
-666 670 0
-667 670 0
-668 670 0
671 0
386 -670 0
-386 670 0
-664 672 0
-665 672 0
-666 672 0
-667 672 0
-668 672 0
664 665 666 667 668 -672 0
390 -672 0
-390 672 0
-665 673 0
-666 673 0
-667 673 0
-668 673 0
665 666 667 668 -673 0
394 -673 0
-394 673 0
398 -673 0
-398 673 0
402 -673 0
-402 673 0
406 -673 0
-406 673 0
-674 675 0
-676 675 0
-677 675 0
-678 675 0
-679 675 0
-680 675 0
-681 675 0
682 0
410 -675 0
-410 675 0
-676 683 0
-677 683 0
-678 683 0
-679 683 0
-680 683 0
-681 683 0
684 0
414 -683 0
-414 683 0
-677 685 0
-678 685 0
-679 685 0
-680 685 0
-681 685 0
677 678 679 680 681 -685 0
418 -685 0
-418 685 0
-678 686 0
-679 686 0
-680 686 0
-681 686 0
678 679 680 681 -686 0
422 -686 0
-422 686 0
-679 687 0
-680 687 0
-681 687 0
679 680 681 -687 0
426 -687 0
-426 687 0
430 -687 0
-430 687 0
434 -687 0
-434 687 0
-637 688 0
-639 688 0
-640 688 0
-641 688 0
-689 688 0
-690 688 0
691 0
438 -688 0
-438 688 0
-637 692 0
-639 692 0
-640 692 0
-641 692 0
-690 692 0
637 639 640 641 690 -692 0
442 -692 0
-442 692 0
-693 694 0
-695 694 0
-696 694 0
-697 694 0
-698 694 0
-699 694 0
-700 694 0
701 0
446 -694 0
-446 694 0
-695 702 0
-696 702 0
-697 702 0
-698 702 0
-699 702 0
-700 702 0
703 0
450 -702 0
-450 702 0
-696 704 0
-697 704 0
-698 704 0
-699 704 0
-700 704 0
696 697 698 699 700 -704 0
454 -704 0
-454 704 0
-697 705 0
-698 705 0
-699 705 0
-700 705 0
697 698 699 700 -705 0
458 -705 0
-458 705 0
-698 706 0
-699 706 0
-700 706 0
698 699 700 -706 0
462 -706 0
-462 706 0
466 -706 0
-466 706 0
470 -706 0
-470 706 0
-620 707 0
-621 707 0
-622 707 0
-708 707 0
-709 707 0
620 621 622 708 709 -707 0
474 -707 0
-474 707 0
-620 710 0
-621 710 0
-622 710 0
-709 710 0
620 621 622 709 -710 0
478 -710 0
-478 710 0
-711 712 0
-713 712 0
-714 712 0
711 713 714 -712 0
482 -712 0
-482 712 0
-713 715 0
-714 715 0
713 714 -715 0
486 -715 0
-486 715 0
490 -714 0
714 -490 0
-716 717 0
-718 717 0
-719 717 0
-720 717 0
-721 717 0
-722 717 0
-723 717 0
724 0
494 -717 0
-494 717 0
-718 725 0
-719 725 0
-720 725 0
-721 725 0
-722 725 0
-723 725 0
726 0
498 -725 0
-498 725 0
-719 727 0
-720 727 0
-721 727 0
-722 727 0
-723 727 0
719 720 721 722 723 -727 0
502 -727 0
-502 727 0
-720 728 0
-721 728 0
-722 728 0
-723 728 0
720 721 722 723 -728 0
506 -728 0
-506 728 0
510 -728 0
-510 728 0
514 -728 0
-514 728 0
518 -728 0
-518 728 0
-729 730 0
-731 730 0
-732 730 0
-733 730 0
-734 730 0
729 731 732 733 734 -730 0
522 -730 0
-522 730 0
-731 735 0
-732 735 0
-733 735 0
-734 735 0
731 732 733 734 -735 0
526 -735 0
-526 735 0
-732 736 0
-733 736 0
-734 736 0
732 733 734 -736 0
530 -736 0
-530 736 0
-733 737 0
-734 737 0
733 734 -737 0
534 -737 0
-534 737 0
538 -734 0
734 -538 0
-738 739 0
-740 739 0
-741 739 0
-742 739 0
-743 739 0
738 740 741 742 743 -739 0
542 -739 0
-542 739 0
-740 744 0
-741 744 0
-742 744 0
-743 744 0
740 741 742 743 -744 0
546 -744 0
-546 744 0
-741 745 0
-742 745 0
-743 745 0
741 742 743 -745 0
550 -745 0
-550 745 0
-742 746 0
-743 746 0
742 743 -746 0
554 -746 0
-554 746 0
558 -746 0
-558 746 0
-711 747 0
-713 747 0
-714 747 0
-748 747 0
711 713 714 748 -747 0
562 -747 0
-562 747 0
-720 749 0
-721 749 0
-722 749 0
-723 749 0
-750 749 0
-751 749 0
-752 749 0
753 0
566 -749 0
-566 749 0
-720 754 0
-721 754 0
-722 754 0
-723 754 0
-751 754 0
-752 754 0
755 0
570 -754 0
-570 754 0
-720 756 0
-721 756 0
-722 756 0
-723 756 0
-752 756 0
720 721 722 723 752 -756 0
574 -756 0
-574 756 0
-679 757 0
-680 757 0
-681 757 0
-758 757 0
-759 757 0
679 680 681 758 759 -757 0
578 -757 0
-578 757 0
-679 760 0
-680 760 0
-681 760 0
-759 760 0
679 680 681 759 -760 0
582 -760 0
-582 760 0
-729 761 0
-731 761 0
-732 761 0
-733 761 0
-734 761 0
-762 761 0
-763 761 0
-764 761 0
-765 761 0
-766 761 0
767 0
586 -761 0
-586 761 0
-729 768 0
-731 768 0
-732 768 0
-733 768 0
-734 768 0
-763 768 0
-764 768 0
-765 768 0
-766 768 0
769 0
590 -768 0
-590 768 0
-729 770 0
-731 770 0
-732 770 0
-733 770 0
-734 770 0
-764 770 0
-765 770 0
-766 770 0
771 0
594 -770 0
-594 770 0
-729 772 0
-731 772 0
-732 772 0
-733 772 0
-734 772 0
-765 772 0
-766 772 0
773 0
598 -772 0
-598 772 0
-729 774 0
-731 774 0
-732 774 0
-733 774 0
-734 774 0
-766 774 0
775 0
602 -774 0
-602 774 0
-713 776 0
-714 776 0
-777 776 0
-778 776 0
-779 776 0
713 714 777 778 779 -776 0
606 -776 0
-606 776 0
-713 780 0
-714 780 0
-778 780 0
-779 780 0
713 714 778 779 -780 0
610 -780 0
-610 780 0
-713 781 0
-714 781 0
-779 781 0
713 714 779 -781 0
614 -781 0
-614 781 0
-616 0
618 0
619 0
620 0
621 0
-622 0
-627 0
629 0
-630 0
631 0
-632 0
-633 0
637 0
639 0
-640 0
-641 0
-642 0
644 0
645 0
646 0
647 0
-648 0
-652 0
-654 0
655 0
656 0
657 0
-661 0
-663 0
664 0
-665 0
666 0
-667 0
668 0
674 0
-676 0
677 0
-678 0
-679 0
-680 0
-681 0
-689 0
690 0
-693 0
695 0
-696 0
-697 0
698 0
-699 0
700 0
708 0
-709 0
711 0
-713 0
-714 0
716 0
718 0
-719 0
-720 0
-721 0
-722 0
-723 0
-729 0
-731 0
-732 0
-733 0
-734 0
-738 0
-740 0
-741 0
-742 0
-743 0
748 0
-750 0
751 0
752 0
-758 0
-759 0
762 0
-763 0
-764 0
-765 0
-766 0
-777 0
778 0
-779 0
-782 -783 0
-782 -784 0
-782 -785 0
-782 -786 0
787 -782 0
-782 -788 0
-782 -789 0
-782 -790 0
791 -782 0
-782 -792 0
793 -782 0
794 -782 0
-782 795 0
-782 796 0
-782 797 0
-782 798 0
-782 799 0
-782 -800 0
-782 -801 0
-782 802 0
-782 803 0
-782 -804 0
805 -782 0
806 -782 0
807 -782 0
808 -782 0
-782 -809 0
810 -782 0
-782 -811 0
812 -782 0
-782 -813 0
814 -782 0
-782 -815 0
816 -782 0
817 -782 0
-782 -818 0
819 -782 0
-782 -820 0
-782 -821 0
-782 -822 0
-782 -823 0
824 -782 0
-782 -825 0
826 -782 0
-782 -827 0
828 -782 0
829 -782 0
-782 -830 0
831 -782 0
-782 -832 0
-782 -833 0
-782 -834 0
835 -782 0
-782 -836 0
837 -782 0
-782 -838 0
-782 -839 0
-782 -840 0
-782 -841 0
842 -782 0
843 -782 0
-782 -844 0
845 -782 0
846 -782 0
-782 -847 0
848 -782 0
-782 -849 0
850 -782 0
-782 -851 0
-782 -852 0
853 -782 0
854 -782 0
-782 -855 0
-782 -856 0
-782 -857 0
-782 -858 0
-782 -859 0
-782 -860 0
861 -782 0
-782 -862 0
863 -782 0
864 -782 0
865 -782 0
-782 -866 0
-782 -867 0
-782 -868 0
-782 -869 0
-783 -784 0
785 -783 0
786 -783 0
787 -783 0
788 -783 0
-783 -789 0
-783 -790 0
791 -783 0
-783 -792 0
793 -783 0
-783 -794 0
-783 -795 0
-783 796 0
-783 797 0
-783 -798 0
-783 -799 0
-783 -800 0
-783 801 0
-783 802 0
-783 803 0
-783 804 0
-783 -805 0
-783 -806 0
-783 -807 0
-783 808 0
809 -783 0
810 -783 0
-783 -811 0
-783 -812 0
813 -783 0
-783 -814 0
815 -783 0
-783 -816 0
817 -783 0
818 -783 0
-783 -819 0
820 -783 0
-783 -821 0
-783 -822 0
-783 -823 0
-783 -824 0
-783 -825 0
826 -783 0
-783 -827 0
828 -783 0
-783 -829 0
-783 -830 0
831 -783 0
-783 -832 0
833 -783 0
834 -783 0
-783 -835 0
836 -783 0
-783 -837 0
-783 -838 0
839 -783 0
840 -783 0
-783 -841 0
-783 -842 0
-783 -843 0
-783 -844 0
-783 -845 0
-783 -846 0
-783 -847 0
-783 -848 0
-783 -849 0
-783 -850 0
-783 -851 0
-783 -852 0
-783 -853 0
-783 -854 0
-783 -855 0
856 -783 0
-783 -857 0
858 -783 0
859 -783 0
-783 -860 0
-783 -861 0
862 -783 0
-783 -863 0
-783 -864 0
-783 -865 0
-783 -866 0
-783 -867 0
868 -783 0
-783 -869 0
782 783 0
-870 0
-871 0
-872 0
-873 0
-874 0
-875 0
-876 0
-877 0
